NAME : B-n64-k9
COMMENT : (Augerat et al, Min no of trucks: 9, Optimal value: 861)
TYPE : CVRP
DIMENSION : 64
EDGE_WEIGHT_TYPE : EUC_2D 
CAPACITY : 100
NODE_COORD_SECTION 
1 59 73
2 79 65
3 73 27
4 41 81
5 11 93
6 13 89
7 11 15
8 71 81
9 77 89
10 41 87
11 44 94
12 51 101
13 42 92
14 58 104
15 14 94
16 18 90
17 60 102
18 72 86
19 45 95
20 20 90
21 74 32
22 78 90
23 18 98
24 78 36
25 16 90
26 78 36
27 80 74
28 78 92
29 52 108
30 49 97
31 72 82
DEMAND_SECTION 
1 0 
2 24 
3 15 
4 2 
5 3 
6 24 
7 17 
8 9 
9 4 
10 2 
11 15 
12 20 
13 17 
14 15 
15 20 
16 8 
17 6 
18 2 
19 6 
20 18 
21 5 
22 16 
23 2 
24 18 
25 1 
26 13 
27 17 
28 5 
29 14 
30 19 
31 3
DEPOT_SECTION 
1  
-1  
EOF 
